
Gurobi 10.0.1 (linux64) logging started Sun 13 Aug 2023 01:41:05 AM CDT

Set parameter LogFile to value "/home/dlcole3/graph_abstraction/plasmoexamples/SHP_serial/SHP_reserve_requirements/gurobi_logs/logfile17.log"
Set parameter NodefileStart to value 0.0005
Set parameter TimeLimit to value 36000
Gurobi Optimizer version 10.0.1 build v10.0.1rc0 (linux64)

CPU model: Intel(R) Xeon(R) CPU E5-2698 v4 @ 2.20GHz, instruction set [SSE2|AVX|AVX2]
Thread count: 40 physical cores, 80 logical processors, using up to 8 threads


Warning: excessive time spent in model updates.
Consider calling update less frequently.

Optimize a model with 1105538 rows, 641709 columns and 4644125 nonzeros
Model fingerprint: 0x70d6712e
Variable types: 599982 continuous, 41727 integer (41727 binary)
Coefficient statistics:
  Matrix range     [5e-02, 2e+04]
  Objective range  [2e-01, 8e+04]
  Bounds range     [5e-02, 2e+04]
  RHS range        [2e-19, 7e+03]
Presolve removed 263168 rows and 118486 columns (presolve time = 5s) ...
Presolve removed 276871 rows and 124832 columns (presolve time = 10s) ...
Presolve removed 278967 rows and 127973 columns (presolve time = 15s) ...
Presolve removed 284781 rows and 132496 columns (presolve time = 20s) ...
Presolve removed 291683 rows and 132698 columns (presolve time = 25s) ...
Presolve removed 292432 rows and 133423 columns (presolve time = 30s) ...
Presolve removed 292442 rows and 133473 columns (presolve time = 35s) ...
Presolve removed 292472 rows and 133473 columns (presolve time = 40s) ...
Presolve removed 292772 rows and 133493 columns (presolve time = 45s) ...
Sparsify removed 205731 nonzeros (5%)
Presolve removed 292772 rows and 132335 columns
Presolve time: 49.14s
Presolved: 812766 rows, 509374 columns, 3964215 nonzeros
Variable types: 475751 continuous, 33623 integer (33566 binary)

Deterministic concurrent LP optimizer: primal simplex, dual simplex, and barrier
Showing barrier log only...

Root barrier log...

Elapsed ordering time = 5s
Elapsed ordering time = 18s
Elapsed ordering time = 21s
Elapsed ordering time = 25s
Elapsed ordering time = 32s
Elapsed ordering time = 35s
Elapsed ordering time = 40s
Elapsed ordering time = 45s
Elapsed ordering time = 50s
Elapsed ordering time = 55s
Elapsed ordering time = 58s
Elapsed ordering time = 61s
Elapsed ordering time = 65s
Ordering time: 68.70s

Barrier statistics:
 Dense cols : 218
 AA' NZ     : 2.364e+07
 Factor NZ  : 3.608e+08 (roughly 3.4 GB of memory)
 Factor Ops : 1.758e+12 (roughly 14 seconds per iteration)
 Threads    : 5

                  Objective                Residual
Iter       Primal          Dual         Primal    Dual     Compl     Time
   0  -2.13900163e+11 -1.80083242e+13  1.24e+04 1.06e+04  1.17e+08   141s
   1  -2.05255145e+11 -1.77584221e+13  1.20e+04 5.53e+06  1.13e+08   151s
   2  -1.47379825e+11 -1.57420100e+13  8.73e+03 3.70e+06  8.06e+07   165s
   3  -1.28275105e+11 -1.41024619e+13  7.68e+03 2.66e+06  6.79e+07   179s
   4  -6.18573902e+10 -8.38902494e+12  4.06e+03 2.41e+05  3.29e+07   194s
   5  -2.57325571e+10 -3.12483999e+12  1.83e+03 7.36e+00  1.31e+07   208s
   6  -4.98910150e+09 -1.51497778e+12  5.82e+02 1.48e+00  4.25e+06   224s
   7   2.48439164e+09 -8.06737542e+11  1.52e+02 1.01e+00  1.24e+06   240s
   8   4.35593740e+09 -3.86889321e+11  4.96e+01 3.24e-01  4.21e+05   258s
   9   4.57056600e+09 -1.56387580e+11  1.84e+01 1.07e-01  1.42e+05   273s
  10   3.24521538e+09 -4.04633136e+10  4.45e+00 3.75e-02  3.15e+04   292s
  11   1.37843431e+09 -1.66791607e+10  1.80e+00 1.59e-02  1.19e+04   309s
  12   2.76454651e+08 -2.67184994e+09  2.39e-01 2.74e-03  1.80e+03   329s
  13   7.61766625e+07 -4.16822219e+08  3.30e-04 4.65e-04  2.90e+02   346s
  14   6.01483901e+07 -9.69049883e+07  4.11e-05 2.03e-04  9.23e+01   366s
  15   4.98146526e+07  5.59288614e+06  8.87e-06 4.57e-04  2.60e+01   389s
  16   4.35933919e+07  3.19419298e+07  3.11e-06 8.25e-05  6.85e+00   417s
  17   4.17662235e+07  3.70479837e+07  2.01e-06 1.84e-05  2.77e+00   440s
  18   4.05258043e+07  3.78817632e+07  1.19e-06 5.98e-06  1.55e+00   462s
  19   4.00371619e+07  3.81534397e+07  8.66e-07 4.39e-06  1.11e+00   478s
  20   3.95161272e+07  3.83808999e+07  5.52e-07 2.69e-06  6.68e-01   495s
  21   3.92951498e+07  3.85036231e+07  4.02e-07 1.05e-06  4.65e-01   510s
  22   3.90938103e+07  3.85722107e+07  2.77e-07 1.18e-06  3.07e-01   528s
  23   3.89369215e+07  3.86301650e+07  1.73e-07 4.97e-07  1.80e-01   545s
  24   3.88646233e+07  3.86484137e+07  1.29e-07 3.51e-07  1.27e-01   561s
  25   3.87841016e+07  3.86675420e+07  7.39e-08 1.57e-07  6.86e-02   577s
  26   3.87585947e+07  3.86723921e+07  6.44e-08 1.00e-07  5.07e-02   596s
  27   3.87366311e+07  3.86751535e+07  1.03e-07 7.23e-08  3.62e-02   618s
  28   3.87235588e+07  3.86785035e+07  1.16e-07 3.89e-08  2.65e-02   639s
  29   3.87169725e+07  3.86789738e+07  4.78e-07 3.47e-08  2.23e-02   657s
  30   3.87087741e+07  3.86799955e+07  5.68e-07 2.61e-08  1.69e-02   677s
  31   3.87041468e+07  3.86807280e+07  4.85e-07 1.94e-08  1.38e-02   700s
  32   3.86979621e+07  3.86811371e+07  1.00e-06 2.29e-08  9.90e-03   723s
  33   3.86939678e+07  3.86819606e+07  1.48e-06 1.98e-08  7.06e-03   746s
  34   3.86898047e+07  3.86824103e+07  1.77e-06 9.29e-09  4.35e-03   770s
  35   3.86870655e+07  3.86825648e+07  2.11e-06 2.31e-08  2.65e-03   793s
  36   3.86861004e+07  3.86826512e+07  2.07e-06 1.12e-08  2.03e-03   812s
  37   3.86855706e+07  3.86826939e+07  1.75e-06 3.54e-08  1.69e-03   830s
  38   3.86847596e+07  3.86827128e+07  1.24e-06 1.35e-08  1.20e-03   847s
  39   3.86846771e+07  3.86827303e+07  1.19e-06 2.46e-08  1.15e-03   865s
  40   3.86844596e+07  3.86827307e+07  1.07e-06 1.76e-08  1.02e-03   886s
  41   3.86839187e+07  3.86827724e+07  1.08e-06 1.97e-08  6.74e-04   908s
  42   3.86835013e+07  3.86827828e+07  1.91e-06 1.04e-08  4.23e-04   930s
  43   3.86832569e+07  3.86827936e+07  1.78e-06 1.34e-08  2.72e-04   952s
  44   3.86831324e+07  3.86827964e+07  1.42e-06 1.06e-08  1.98e-04   972s
  45   3.86830743e+07  3.86828008e+07  1.17e-06 9.83e-09  1.61e-04   989s
  46   3.86830084e+07  3.86828045e+07  9.17e-07 1.55e-08  1.20e-04  1007s
  47   3.86829783e+07  3.86828059e+07  9.38e-07 2.04e-08  1.01e-04  1024s
  48   3.86829331e+07  3.86828100e+07  1.74e-06 1.96e-08  7.24e-05  1043s
  49   3.86828920e+07  3.86828108e+07  1.52e-06 1.38e-08  4.78e-05  1066s
  50   3.86828665e+07  3.86828141e+07  1.22e-06 1.17e-08  3.08e-05  1088s

Barrier solved model in 50 iterations and 1087.54 seconds (1039.98 work units)
Optimal objective 3.86828665e+07


Root crossover log...

  368394 DPushes remaining with DInf 1.8941155e-02              1089s
  155008 DPushes remaining with DInf 1.2380346e+04              1091s
  101576 DPushes remaining with DInf 0.0000000e+00              1095s
   71356 DPushes remaining with DInf 0.0000000e+00              1101s
   57076 DPushes remaining with DInf 0.0000000e+00              1106s
   47555 DPushes remaining with DInf 0.0000000e+00              1110s
   38155 DPushes remaining with DInf 0.0000000e+00              1116s
   31649 DPushes remaining with DInf 0.0000000e+00              1120s
   29209 DPushes remaining with DInf 0.0000000e+00              1126s
   27614 DPushes remaining with DInf 0.0000000e+00              1130s
   24871 DPushes remaining with DInf 0.0000000e+00              1136s
   21938 DPushes remaining with DInf 0.0000000e+00              1140s
   17577 DPushes remaining with DInf 0.0000000e+00              1146s
   14875 DPushes remaining with DInf 0.0000000e+00              1152s
   11719 DPushes remaining with DInf 0.0000000e+00              1155s
    6938 DPushes remaining with DInf 0.0000000e+00              1161s
    4268 DPushes remaining with DInf 0.0000000e+00              1166s
    2300 DPushes remaining with DInf 0.0000000e+00              1170s
     299 DPushes remaining with DInf 0.0000000e+00              1175s
       0 DPushes remaining with DInf 0.0000000e+00              1176s

  261921 PPushes remaining with PInf 5.5244317e-02              1177s
   85704 PPushes remaining with PInf 4.2000371e-01              1182s
   25473 PPushes remaining with PInf 3.5672400e-01              1186s
   15203 PPushes remaining with PInf 2.6551237e-01              1190s
    8180 PPushes remaining with PInf 2.2844431e-01              1197s
     609 PPushes remaining with PInf 2.0126478e-01              1202s
       0 PPushes remaining with PInf 5.1198200e-03              1205s

  Push phase complete: Pinf 5.1198200e-03, Dinf 5.9627117e+06   1205s


Root simplex log...

Iteration    Objective       Primal Inf.    Dual Inf.      Time
  413791    3.8682871e+07   0.000000e+00   5.962712e+06   1206s
  415007    3.8682816e+07   6.304879e+08   0.000000e+00   1211s
  415347    3.8682817e+07   0.000000e+00   0.000000e+00   1214s
  415347    3.8682817e+07   0.000000e+00   0.000000e+00   1215s
Waiting for other threads to finish...        1282s
Waiting for other threads to finish...        1349s
Concurrent spin time: 134.71s (can be avoided by choosing Method=3)

Solved with barrier

Root relaxation: objective 3.868282e+07, 415347 iterations, 1296.13 seconds (1136.68 work units)
Total elapsed time = 1350.16s

    Nodes    |    Current Node    |     Objective Bounds      |     Work
 Expl Unexpl |  Obj  Depth IntInf | Incumbent    BestBd   Gap | It/Node Time

     0     0 3.8683e+07    0  524          - 3.8683e+07      -     - 1371s
     0     0 3.8683e+07    0  524          - 3.8683e+07      -     - 1373s
     0     0 3.8688e+07    0  546          - 3.8688e+07      -     - 1465s
     0     0 3.8688e+07    0  545          - 3.8688e+07      -     - 1467s
     0     0 3.8689e+07    0  568          - 3.8689e+07      -     - 1504s
     0     0 3.8689e+07    0  568          - 3.8689e+07      -     - 1508s
     0     0 3.8694e+07    0  594          - 3.8694e+07      -     - 1543s
     0     0 3.8695e+07    0  613          - 3.8695e+07      -     - 1590s
     0     0 3.8695e+07    0  574          - 3.8695e+07      -     - 1595s
     0     0 3.8696e+07    0  671          - 3.8696e+07      -     - 1638s
     0     0 3.8696e+07    0  649          - 3.8696e+07      -     - 1666s
     0     0 3.8696e+07    0  652          - 3.8696e+07      -     - 1670s
     0     0 3.8696e+07    0  652          - 3.8696e+07      -     - 1675s
     0     0 3.8700e+07    0  584          - 3.8700e+07      -     - 1716s
     0     0 3.8700e+07    0  610          - 3.8700e+07      -     - 1738s
     0     0 3.8700e+07    0  596          - 3.8700e+07      -     - 1743s
     0     0 3.8700e+07    0  597          - 3.8700e+07      -     - 1747s
     0     0 3.8705e+07    0  545          - 3.8705e+07      -     - 1777s
     0     0 3.8705e+07    0  549          - 3.8705e+07      -     - 1818s
     0     0 3.8705e+07    0  550          - 3.8705e+07      -     - 1825s
     0     0 3.8706e+07    0  566          - 3.8706e+07      -     - 1854s
     0     0 3.8706e+07    0  553          - 3.8706e+07      -     - 1858s
     0     0 3.8706e+07    0  558          - 3.8706e+07      -     - 1884s
     0     0 3.8706e+07    0  563          - 3.8706e+07      -     - 1891s
     0     0 3.8706e+07    0  563          - 3.8706e+07      -     - 1894s
     0     0 3.8710e+07    0  587          - 3.8710e+07      -     - 1924s
     0     0 3.8712e+07    0  593          - 3.8712e+07      -     - 1941s
     0     0 3.8712e+07    0  595          - 3.8712e+07      -     - 1963s
     0     0 3.8712e+07    0  599          - 3.8712e+07      -     - 1968s
     0     0 3.8712e+07    0  608          - 3.8712e+07      -     - 1992s
     0     0 3.8716e+07    0  609          - 3.8716e+07      -     - 2010s
     0     0 3.8716e+07    0  611          - 3.8716e+07      -     - 2053s
     0     0 3.8716e+07    0  611          - 3.8716e+07      -     - 2058s
     0     0 3.8716e+07    0  611          - 3.8716e+07      -     - 2060s
     0     0 3.8716e+07    0  709          - 3.8716e+07      -     - 2086s
     0     0 3.8721e+07    0  662          - 3.8721e+07      -     - 2107s
     0     0 3.8722e+07    0  697          - 3.8722e+07      -     - 2143s
     0     0 3.8722e+07    0  700          - 3.8722e+07      -     - 2147s
     0     0 3.8722e+07    0  661          - 3.8722e+07      -     - 2169s
     0     0 3.8722e+07    0  661          - 3.8722e+07      -     - 2187s
     0     0 3.8722e+07    0  661          - 3.8722e+07      -     - 2190s
     0     0 3.8723e+07    0  696          - 3.8723e+07      -     - 2213s
     0     0 3.8724e+07    0  663          - 3.8724e+07      -     - 2246s
     0     0 3.8724e+07    0  663          - 3.8724e+07      -     - 2267s
     0     0 3.8724e+07    0  634          - 3.8724e+07      -     - 2291s
     0     0 3.8724e+07    0  634          - 3.8724e+07      -     - 2308s
     0     0 3.8725e+07    0  597          - 3.8725e+07      -     - 2335s
     0     0 3.8726e+07    0  575          - 3.8726e+07      -     - 2356s
     0     0 3.8726e+07    0  574          - 3.8726e+07      -     - 2362s
     0     0 3.8726e+07    0  574          - 3.8726e+07      -     - 2365s
     0     0 3.8727e+07    0  587          - 3.8727e+07      -     - 2386s
     0     0 3.8727e+07    0  587          - 3.8727e+07      -     - 2405s
     0     0 3.8727e+07    0  587          - 3.8727e+07      -     - 2443s
     0     0 3.8727e+07    0  587          - 3.8727e+07      -     - 2447s
     0     0 3.8728e+07    0  590          - 3.8728e+07      -     - 2467s
     0     0 3.8728e+07    0  590          - 3.8728e+07      -     - 2514s
     0     0 3.8728e+07    0  590          - 3.8728e+07      -     - 2517s
     0     0 3.8728e+07    0  572          - 3.8728e+07      -     - 2537s
     0     0 3.8728e+07    0  572          - 3.8728e+07      -     - 2542s
     0     0 3.8728e+07    0  548          - 3.8728e+07      -     - 2561s
     0     0 3.8728e+07    0  548          - 3.8728e+07      -     - 2566s
     0     0 3.8728e+07    0  522          - 3.8728e+07      -     - 2585s
     0     0 3.8728e+07    0  522          - 3.8728e+07      -     - 2590s
     0     0 3.8728e+07    0  493          - 3.8728e+07      -     - 2610s
     0     0 3.8729e+07    0  479          - 3.8729e+07      -     - 2631s
     0     0 3.8729e+07    0  481          - 3.8729e+07      -     - 2649s
     0     0 3.8729e+07    0  481          - 3.8729e+07      -     - 2653s
     0     0 3.8729e+07    0  415          - 3.8729e+07      -     - 2672s
     0     0 3.8729e+07    0  400          - 3.8729e+07      -     - 2687s
     0     0 3.8729e+07    0  390          - 3.8729e+07      -     - 2704s
     0     0 3.8729e+07    0  390          - 3.8729e+07      -     - 2712s
     0     0 3.8729e+07    0  411          - 3.8729e+07      -     - 2729s
H    0     0                    8.975129e+09 3.8729e+07   100%     - 2731s
     0     0 3.8729e+07    0  411 8.9751e+09 3.8729e+07   100%     - 2749s
H    0     0                    8.559785e+09 3.8729e+07   100%     - 2876s
     0     2 3.8730e+07    0  416 8.5598e+09 3.8730e+07   100%     - 2988s
     1     4 3.8755e+07    1  494 8.5598e+09 3.8730e+07   100%  3687 3027s
     3     8 3.9001e+07    2  310 8.5598e+09 3.8755e+07   100%  8894 3081s
     7    14 3.9006e+07    3  273 8.5598e+09 3.8805e+07   100%  6154 3172s
    15    16 3.9007e+07    4  270 8.5598e+09 3.8854e+07   100%  7089 3260s
    23    20 3.9007e+07    4  263 8.5598e+09 3.8854e+07   100%  6335 3363s
    31    24 3.9014e+07    5  272 8.5598e+09 3.8882e+07   100%  5903 3453s
H   35    24                    8.558872e+09 3.8882e+07   100%  5268 3454s
    39    26 3.9014e+07    6  271 8.5589e+09 3.8882e+07   100%  4824 3478s
    47    31 3.9024e+07    7  266 8.5589e+09 3.8883e+07   100%  4115 3498s
    57    35 3.9024e+07    8  265 8.5589e+09 3.8885e+07   100%  3493 3524s
    68    37 3.9033e+07    9  269 8.5589e+09 3.8886e+07   100%  2997 3610s
    76    37 3.9043e+07   10  270 8.5589e+09 3.8890e+07   100%  2717 3647s
    86    39 3.9044e+07   11  328 8.5589e+09 3.8893e+07   100%  2488 3670s
    97    41 3.9052e+07   13  327 8.5589e+09 3.8893e+07   100%  2241 3693s
   109    41 3.9056e+07   14  345 8.5589e+09 3.8893e+07   100%  2062 3724s
   119    44 3.9056e+07   15  325 8.5589e+09 3.8893e+07   100%  1909 3750s
   137    49 3.9060e+07   16  307 8.5589e+09 3.8893e+07   100%  1677 3778s
   160    51 3.9060e+07   18  309 8.5589e+09 3.8893e+07   100%  1456 3870s
   170    62 3.9060e+07   19  305 8.5589e+09 3.8893e+07   100%  1417 3903s
   196    69 3.9070e+07   22  295 8.5589e+09 3.8893e+07   100%  1247 3940s
H  201    69                    4.849563e+09 3.8893e+07  99.2%  1223 3940s
   208    83 3.9074e+07   23  289 4.8496e+09 3.8893e+07  99.2%  1187 3986s
   229    95 3.9077e+07   25  285 4.8496e+09 3.8893e+07  99.2%  1113 4042s
   255   110 3.9077e+07   27  197 4.8496e+09 3.8893e+07  99.2%  1043 4082s
   278   122 3.9141e+07   31  272 4.8496e+09 3.8893e+07  99.2%  1016 4117s
   297   151 3.9078e+07   32  169 4.8496e+09 3.8893e+07  99.2%   974 4156s
   336   164 3.9079e+07   38  200 4.8496e+09 3.8893e+07  99.2%   884 4280s
H  337   164                    4.832202e+09 3.8893e+07  99.2%   882 4281s
H  339   164                    4.831125e+09 3.8893e+07  99.2%   878 4281s
H  352   164                    4.829898e+09 3.8893e+07  99.2%   866 4281s
   353   190 3.9079e+07   40  174 4.8299e+09 3.8893e+07  99.2%   866 4318s
   391   196 3.9106e+07   48  182 4.8299e+09 3.8893e+07  99.2%   816 6281s
H  395   196                    3.908751e+07 3.8893e+07  0.50%   809 6281s
H  396   196                    3.898140e+07 3.8893e+07  0.23%   809 6281s
H  397   196                    3.896005e+07 3.8893e+07  0.17%   808 6281s
H  398   196                    3.891861e+07 3.8893e+07  0.07%   811 6281s

Cutting planes:
  Gomory: 77
  Implied bound: 62
  MIR: 523
  StrongCG: 4
  Flow cover: 846
  RLT: 184
  Relax-and-lift: 7

Explored 402 nodes (754774 simplex iterations) in 6282.24 seconds (6753.20 work units)
Thread count was 8 (of 80 available processors)

Solution count 10: 3.89186e+07 3.89186e+07 3.89601e+07 ... 8.55887e+09

Optimal solution found (tolerance 5.00e-02)
Best objective 3.891860585681e+07, best bound 3.889318725341e+07, gap 0.0653%

User-callback calls 2627163, time in user-callback 10.25 sec
